50
    18 12
    8 18
    17 4
    6 2
    9 3
    11 1
    18 4
    13 11
    6 1
    9 18
    11 12
    4 18
    10 4
    12 2
    19 16
    20 14
    9 20
    5 19
    12 4
    12 4
    10 2
    7 13
    1 19
    16 7
    14 16
    7 3
    20 1
    3 17
    18 1
    5 19
    18 2
    12 11
    3 13
    2 14
    17 5
    7 18
    18 7
    13 5
    15 6
    14 8
    18 15
    20 14
    15 9
    17 12
    3 9
    6 7
    3 16
    20 16
    13 20
    1 10
